row=8;
column=8;
Board=[|0,0,3,0,1,0,6,8|0,0,0,0,0,0,0,0|0,0,0,8,0,0,0,1|8,0,0,0,0,5,0,0|6,0,8,0,5,0,0,3|3,0,4,0,0,6,2,5|1,5,0,0,0,0,7,4|0,2,0,0,0,0,0,0|];
OE=[|1,0,1,0,1,1,0,0|1,1,1,0,0,0,1,0|0,1,1,0,0,0,1,1|0,0,1,1,0,1,1,0|0,1,0,1,1,0,0,1|1,0,0,1,1,0,0,1|1,1,0,0,0,1,1,0|0,0,0,1,1,1,0,1|];
